sat
(:added-eqs                       6578
 :arith-eq-adapter                346
 :arith-bound-propagations-lp     189
 :arith-branch                    8
 :arith-conflicts                 1233
 :arith-cube-calls                1
 :arith-diseq                     453
 :arith-fixed-eqs                 536
 :arith-gcd-calls                 134
 :arith-gomory-cuts               2
 :arith-grobner-calls             123
 :arith-grobner-conflicts         110
 :arith-hnf-calls                 1
 :arith-horner-calls              26
 :arith-horner-conflicts          1
 :arith-horner-cross-nested-forms 15902
 :arith-lower                     1730
 :arith-make-feasible             2574
 :arith-max-columns               1836
 :arith-max-rows                  839
 :arith-nla-add-bounds            3
 :arith-nla-lemmas                582
 :arith-nla-propagate-bounds      535
 :arith-nla-propagate-eq          7513
 :arith-nra-calls                 29
 :arith-offset-eqs                1016
 :arith-patches                   134
 :arith-patches-success           122
 :arith-upper                     3188
 :binary-propagations             1674
 :cnf-encoding-aux-vars           28
 :conflicts                       175
 :decisions                       3188
 :del-clause                      702
 :elim-unconstrained              23
 :final-checks                    296
 :max-memory                      114.50
 :memory                          58.84
 :minimized-lits                  149
 :mk-bool-var                     3740
 :mk-clause                       1344
 :mk-clause-binary                8136
 :nlsat-conflicts                 2525
 :nlsat-decisions                 475
 :nlsat-propagations              222425
 :nlsat-restarts                  5
 :nlsat-stages                    160655
 :num-allocs                      3683857389
 :num-checks                      1
 :propagations                    3524
 :restarts                        1
 :rlimit-count                    3638942
 :sat-mk-clause-2ary              132847
 :sat-mk-clause-nary              197268
 :sat-mk-var                      94888
 :sls-arith-moves                 2380
 :sls-ddfw-shifts                 1.00
 :sls-num-guided-search           11
 :solve-eqs-elim-vars             147
 :solve-eqs-steps                 2446
 :time                            2.38
 :total-time                      2.39)
